presolving:
(round 1, fast)       16335 del vars, 0 del conss, 0 add conss, 21673 chg bounds, 0 chg sides, 657 chg coeffs, 0 upgd conss, 0 impls, 0 clqs
(round 2, fast)       16336 del vars, 220 del conss, 0 add conss, 21673 chg bounds, 55 chg sides, 657 chg coeffs, 0 upgd conss, 0 impls, 0 clqs
   (0.2s) running MILP presolver
   (0.2s) MILP presolver (2 rounds): 0 aggregations, 0 fixings, 67 bound changes
(round 3, medium)     16336 del vars, 220 del conss, 0 add conss, 21740 chg bounds, 55 chg sides, 657 chg coeffs, 0 upgd conss, 0 impls, 0 clqs
(round 4, exhaustive) 16336 del vars, 220 del conss, 0 add conss, 21740 chg bounds, 55 chg sides, 657 chg coeffs, 74 upgd conss, 0 impls, 0 clqs
(round 5, fast)       16755 del vars, 220 del conss, 0 add conss, 21740 chg bounds, 82 chg sides, 1693 chg coeffs, 74 upgd conss, 0 impls, 0 clqs
(round 6, fast)       16755 del vars, 220 del conss, 0 add conss, 21740 chg bounds, 82 chg sides, 2112 chg coeffs, 74 upgd conss, 0 impls, 12 clqs
(round 7, exhaustive) 17158 del vars, 220 del conss, 0 add conss, 21740 chg bounds, 82 chg sides, 2112 chg coeffs, 74 upgd conss, 0 impls, 12 clqs
(round 8, fast)       17158 del vars, 231 del conss, 11 add conss, 21740 chg bounds, 93 chg sides, 2134 chg coeffs, 74 upgd conss, 0 impls, 22 clqs
(round 9, medium)     17169 del vars, 242 del conss, 11 add conss, 21740 chg bounds, 93 chg sides, 2134 chg coeffs, 74 upgd conss, 0 impls, 12 clqs
   (0.3s) probing: 51/1904 (2.7%) - 0 fixings, 0 aggregations, 0 implications, 0 bound changes
   (0.3s) probing aborted: 50/50 successive totally useless probings
   (0.3s) symmetry computation started: requiring (bin +, int -, cont +), (fixed: bin -, int +, cont -)
   (0.3s) no symmetry present
   (0.3s) symmetry computation started: requiring (bin +, int +, cont +), (fixed: bin -, int -, cont -)
   (0.3s) no symmetry present
presolving (10 rounds: 10 fast, 5 medium, 3 exhaustive):
 17169 deleted vars, 242 deleted constraints, 11 added constraints, 21740 tightened bounds, 0 added holes, 93 changed sides, 2134 changed coefficients
 0 implications, 12 cliques
presolved problem has 5974 variables (1904 bin, 4070 int, 0 impl, 0 cont) and 192 constraints
     51 constraints of type <knapsack>
    129 constraints of type <linear>
     12 constraints of type <logicor>
Presolving Time: 0.29

 time | node  | left  |LP iter|LP it/n|mem/heur|mdpt |vars |cons |rows |cuts |sepa|confs|strbr|  dualbound   | primalbound  |  gap   | compl. 
t 0.3s|     1 |     0 |     0 |     - | trivial|   0 |5974 | 192 |   0 |   0 |  0 |   0 |   0 | 8.426055e+08 | 9.848077e+09 |1068.76%| unknown
  0.6s|     1 |     0 |  1513 |     - |    79M |   0 |5974 | 192 | 192 |   0 |  0 |   0 |   0 | 9.707080e+09 | 9.848077e+09 |   1.45%| unknown
r 0.6s|     1 |     0 |  1513 |     - |shifting|   0 |5974 | 192 | 192 |   0 |  0 |   0 |   0 | 9.707080e+09 | 9.707269e+09 |   0.00%| unknown
i 0.6s|     1 |     0 |  1513 |     - |  oneopt|   0 |5974 | 192 | 192 |   0 |  0 |   0 |   0 | 9.707080e+09 | 9.707263e+09 |   0.00%| unknown
  0.8s|     1 |     0 |  1602 |     - |    81M |   0 |5974 | 192 | 227 |  35 |  1 |   0 |   0 | 9.707082e+09 | 9.707263e+09 |   0.00%| unknown
r 0.8s|     1 |     0 |  1602 |     - |shifting|   0 |5974 | 192 | 227 |  35 |  1 |   0 |   0 | 9.707082e+09 | 9.707219e+09 |   0.00%| unknown
i 0.8s|     1 |     0 |  1602 |     - |  oneopt|   0 |5974 | 192 | 227 |  35 |  1 |   0 |   0 | 9.707082e+09 | 9.707173e+09 |   0.00%| unknown
  0.9s|     1 |     0 |  1679 |     - |    82M |   0 |5974 | 192 | 258 |  66 |  2 |   0 |   0 | 9.707083e+09 | 9.707173e+09 |   0.00%| unknown
  1.0s|     1 |     0 |  2025 |     - |    83M |   0 |5974 | 192 | 285 |  93 |  3 |   0 |   0 | 9.707102e+09 | 9.707173e+09 |   0.00%| unknown
  1.1s|     1 |     0 |  2168 |     - |    84M |   0 |5974 | 192 | 307 | 115 |  4 |   0 |   0 | 9.707104e+09 | 9.707173e+09 |   0.00%| unknown
  1.2s|     1 |     0 |  2249 |     - |    84M |   0 |5974 | 192 | 317 | 125 |  5 |   0 |   0 | 9.707105e+09 | 9.707173e+09 |   0.00%| unknown
  1.3s|     1 |     0 |  2434 |     - |    84M |   0 |5974 | 192 | 326 | 134 |  6 |   0 |   0 | 9.707106e+09 | 9.707173e+09 |   0.00%| unknown
  1.3s|     1 |     0 |  2475 |     - |    84M |   0 |5974 | 192 | 333 | 141 |  7 |   0 |   0 | 9.707107e+09 | 9.707173e+09 |   0.00%| unknown
  1.3s|     1 |     0 |  2590 |     - |    84M |   0 |5974 | 192 | 339 | 147 |  8 |   0 |   0 | 9.707108e+09 | 9.707173e+09 |   0.00%| unknown
  1.4s|     1 |     0 |  2798 |     - |    84M |   0 |5974 | 192 | 345 | 153 |  9 |   0 |   0 | 9.707109e+09 | 9.707173e+09 |   0.00%| unknown
 time | node  | left  |LP iter|LP it/n|mem/heur|mdpt |vars |cons |rows |cuts |sepa|confs|strbr|  dualbound   | primalbound  |  gap   | compl. 
  1.4s|     1 |     0 |  2844 |     - |    84M |   0 |5974 | 192 | 353 | 161 | 10 |   0 |   0 | 9.707109e+09 | 9.707173e+09 |   0.00%| unknown
  1.4s|     1 |     0 |  2907 |     - |    84M |   0 |5974 | 192 | 360 | 168 | 11 |   0 |   0 | 9.707110e+09 | 9.707173e+09 |   0.00%| unknown
  1.5s|     1 |     0 |  3040 |     - |    84M |   0 |5974 | 192 | 364 | 172 | 12 |   0 |   0 | 9.707110e+09 | 9.707173e+09 |   0.00%| unknown
  1.5s|     1 |     0 |  3115 |     - |    84M |   0 |5974 | 192 | 369 | 177 | 13 |   0 |   0 | 9.707111e+09 | 9.707173e+09 |   0.00%| unknown
  1.6s|     1 |     0 |  3152 |     - |    85M |   0 |5974 | 192 | 373 | 181 | 14 |   0 |   0 | 9.707111e+09 | 9.707173e+09 |   0.00%| unknown
  1.6s|     1 |     0 |  3192 |     - |    85M |   0 |5974 | 192 | 378 | 186 | 15 |   0 |   0 | 9.707111e+09 | 9.707173e+09 |   0.00%| unknown
  1.7s|     1 |     0 |  3298 |     - |    85M |   0 |5974 | 192 | 381 | 189 | 16 |   0 |   0 | 9.707111e+09 | 9.707173e+09 |   0.00%| unknown
  1.7s|     1 |     0 |  3409 |     - |    85M |   0 |5974 | 192 | 378 | 194 | 17 |   0 |   0 | 9.707111e+09 | 9.707173e+09 |   0.00%| unknown
  1.8s|     1 |     0 |  3425 |     - |    85M |   0 |5974 | 192 | 381 | 197 | 18 |   0 |   0 | 9.707111e+09 | 9.707173e+09 |   0.00%| unknown
r 1.8s|     1 |     0 |  3425 |     - |shifting|   0 |5974 | 192 | 381 | 197 | 18 |   0 |   0 | 9.707111e+09 | 9.707167e+09 |   0.00%| unknown
  4.0s|     1 |     2 |  9197 |     - |    87M |   0 |5974 | 192 | 381 | 197 | 18 |   0 |  20 | 9.707111e+09 | 9.707167e+09 |   0.00%| unknown
i 4.0s|     2 |     1 |  9197 |5772.0 |  oneopt|   1 |5974 | 192 | 363 | 197 |  0 |   0 |  20 | 9.707111e+09 | 9.707142e+09 |   0.00%| unknown
r 4.1s|     5 |     6 |  9255 |1457.5 |ziroundi|   4 |5974 | 192 | 363 | 197 |  1 |   0 |  20 | 9.707111e+09 | 9.707122e+09 |   0.00%| unknown
r 4.6s|     6 |     7 |  9468 |1208.6 |ziroundi|   5 |5974 | 192 | 363 | 197 |  1 |   0 |  20 | 9.707111e+09 | 9.707122e+09 |   0.00%| unknown
L 6.7s|    41 |    42 | 12358 | 223.3 |    alns|  20 |5974 | 194 | 366 | 210 |  1 |   2 |  20 | 9.707112e+09 | 9.707120e+09 |   0.00%| unknown
 time | node  | left  |LP iter|LP it/n|mem/heur|mdpt |vars |cons |rows |cuts |sepa|confs|strbr|  dualbound   | primalbound  |  gap   | compl. 
L 6.7s|    41 |    42 | 12358 | 223.3 |    alns|  20 |5974 | 194 | 366 | 210 |  1 |   2 |  20 | 9.707112e+09 | 9.707120e+09 |   0.00%| unknown
L 6.8s|    41 |    42 | 12358 | 223.3 |    alns|  20 |5974 | 194 | 366 | 210 |  1 |   2 |  20 | 9.707112e+09 | 9.707120e+09 |   0.00%| unknown
  8.6s|   100 |    91 | 16201 | 129.1 |    92M |  31 |5974 | 194 | 366 | 218 |  1 |   2 |  20 | 9.707112e+09 | 9.707120e+09 |   0.00%| unknown
r 9.4s|   127 |   103 | 17034 | 108.0 |shifting|  31 |5974 | 194 | 366 | 218 |  0 |   2 |  20 | 9.707112e+09 | 9.707119e+09 |   0.00%| unknown
d10.2s|   153 |   124 | 18184 |  97.1 |adaptive|  31 |5974 | 194 | 366 |   0 |  1 |   2 |  20 | 9.707112e+09 | 9.707118e+09 |   0.00%| unknown
d10.2s|   153 |   124 | 18278 |  97.7 |adaptive|  31 |5974 | 194 | 366 |   0 |  1 |   2 |  20 | 9.707112e+09 | 9.707118e+09 |   0.00%| unknown
 11.1s|   200 |   159 | 19968 |  83.1 |    98M |  32 |5974 | 195 | 367 | 230 |  2 |   3 |  20 | 9.707112e+09 | 9.707118e+09 |   0.00%|   5.17%
r12.5s|   252 |   166 | 21380 |  71.5 |shifting|  33 |5974 | 199 | 366 | 231 |  0 |   7 |  20 | 9.707112e+09 | 9.707116e+09 |   0.00%|  10.22%
r13.4s|   284 |   180 | 22019 |  65.7 |ziroundi|  33 |5974 | 199 | 367 | 235 |  2 |   7 |  20 | 9.707112e+09 | 9.707116e+09 |   0.00%|  14.02%
 13.8s|   300 |   180 | 22759 |  64.7 |   105M |  34 |5974 | 199 | 368 | 237 |  1 |   7 |  20 | 9.707112e+09 | 9.707116e+09 |   0.00%|  16.73%
 15.5s|   400 |   216 | 25253 |  54.7 |   106M |  35 |5974 | 204 | 370 | 254 |  2 |  12 |  20 | 9.707113e+09 | 9.707116e+09 |   0.00%|  23.32%
L18.2s|   484 |   259 | 28567 |  52.1 |    rins|  35 |5974 | 208 | 366 | 261 |  1 |  16 |  20 | 9.707113e+09 | 9.707116e+09 |   0.00%|  25.99%
 18.6s|   500 |   273 | 29028 |  51.3 |   113M |  36 |5974 | 208 | 369 | 264 |  1 |  16 |  20 | 9.707113e+09 | 9.707116e+09 |   0.00%|  26.56%
 20.0s|   600 |   319 | 32082 |  47.8 |   118M |  39 |5974 | 213 | 366 | 273 |  2 |  21 |  20 | 9.707113e+09 | 9.707116e+09 |   0.00%|  30.92%
 22.4s|   700 |   357 | 35143 |  45.4 |   122M |  39 |5974 | 215 | 366 | 274 |  1 |  23 |  20 | 9.707113e+09 | 9.707116e+09 |   0.00%|  35.07%
 time | node  | left  |LP iter|LP it/n|mem/heur|mdpt |vars |cons |rows |cuts |sepa|confs|strbr|  dualbound   | primalbound  |  gap   | compl. 
 24.7s|   800 |   395 | 38269 |  43.6 |   129M |  41 |5974 | 219 | 370 | 278 |  0 |  27 |  20 | 9.707113e+09 | 9.707116e+09 |   0.00%|  38.24%
 26.3s|   900 |   387 | 41014 |  41.8 |   132M |  41 |5974 | 219 | 367 | 282 |  0 |  27 |  20 | 9.707113e+09 | 9.707116e+09 |   0.00%|  46.42%
 28.0s|  1000 |   447 | 43547 |  40.2 |   138M |  41 |5974 | 219 | 366 | 282 |  1 |  27 |  20 | 9.707113e+09 | 9.707116e+09 |   0.00%|  64.60%
 29.8s|  1100 |   471 | 44738 |  37.6 |   141M |  44 |5974 | 219 | 368 | 291 |  0 |  27 |  20 | 9.707114e+09 | 9.707116e+09 |   0.00%|  69.26%
r30.7s|  1172 |    39 | 45735 |  36.1 |ziroundi|  55 |5974 | 219 | 366 | 294 |  1 |  27 |  20 | 9.707114e+09 | 9.707114e+09 |   0.00%|  77.64%
r30.7s|  1176 |    41 | 45747 |  36.0 |ziroundi|  55 |5974 | 219 | 366 | 294 |  2 |  27 |  20 | 9.707114e+09 | 9.707114e+09 |   0.00%|  77.65%
 30.9s|  1200 |    43 | 45875 |  35.4 |   144M |  58 |5974 | 219 | 366 | 294 |  0 |  27 |  20 | 9.707114e+09 | 9.707114e+09 |   0.00%|  79.17%
*31.2s|  1225 |    52 | 46161 |  34.9 |    LP  |  58 |5974 | 219 | 370 | 296 |  2 |  27 |  20 | 9.707114e+09 | 9.707114e+09 |   0.00%|  80.64%
 31.9s|  1300 |    77 | 46636 |  33.3 |   154M |  58 |5974 | 219 | 366 | 296 |  0 |  27 |  20 | 9.707114e+09 | 9.707114e+09 |   0.00%|  81.82%
 33.2s|  1400 |    99 | 47307 |  31.4 |   161M |  58 |5974 | 219 | 370 | 298 |  0 |  27 |  20 | 9.707114e+09 | 9.707114e+09 |   0.00%|  81.93%
 35.0s|  1500 |    41 | 47688 |  29.5 |   163M |  59 |5974 | 219 | 370 | 299 |  0 |  27 |  20 | 9.707114e+09 | 9.707114e+09 |   0.00%|  90.05%
 36.0s|  1600 |     7 | 48090 |  27.9 |   169M |  59 |5974 | 223 | 369 | 299 |  0 |  31 |  20 | 9.707114e+09 | 9.707114e+09 |   0.00%|  96.98%

SCIP Status        : problem is solved [optimal solution found]
Solving Time (sec) : 36.18
Solving Nodes      : 1621
Primal Bound       : +9.70711445079277e+09 (343 solutions)
Dual Bound         : +9.70711445079277e+09
Gap                : 0.00 %
Solve Status: optimal
Solve Time: 36.18 seconds
